NAME : arr.tsp
TIME : 2020-10-25 17:05:09
COMMENT : hello world
DIMENSION : 29
NODE_COORD_SECTION
0 31 21
1 113 22
2 158 28
3 171 55
4 170 76
5 168 111
6 166 145
7 169 179
8 127 182
9 91 179
10 43 180
11 22 176
12 24 139
13 28 97
14 27 62
15 72 85
16 118 84
17 132 94
18 111 107
19 87 98
20 74 123
21 60 140
22 66 155
23 109 154
24 141 154
25 110 131
26 96 129
27 85 73
28 113 59
EOF
